problems/csplib-prob026/SportsTournamentScheduling-models/noch/O2/lingeling/model_2-10-solution000001.solution
language Essence 1.3

letting Team be new type enum {Team_1, Team_2, Team_3, Team_4, Team_5, Team_6, Team_7, Team_8, Team_9, Team_10}
letting Week be new type enum {Week_1, Week_2, Week_3, Week_4, Week_5, Week_6, Week_7, Week_8, Week_9}
letting Period be new type enum {Period_1, Period_2, Period_3, Period_4, Period_5}
letting sched be relation((Week_9, Period_4, {Team_9}))
